NAME: CMT5_7
TYPE: CVRP
COMMENT: 1291.29 - Cluster Nr.7
DIMENSION: 14
CAPACITY: 200
EDGE_WEIGHT_TYPE: EUC_2D
NODE_COORD_TYPE: TWOD_COORDS
NODE_COORD_SECTION: 
8 33 34
10 30 48
9 37 47
11 38 46
12 31 32
2 35 51
14 32 39
4 33 44
6 35 35
1 42 41
5 41 46
13 41 37
3 27 43
7 35 40
DEPOT_SECTION: 
6
-1
DEMAND_SECTION: 
7 16
1 19
4 20
8 19
13 16
14 5
3 9
6 0
9 6
11 12
12 29
2 16
10 15
5 18
EOF
